NAME : sample
COMMENT : sample
TYPE : TSP
DIMENSION : 20
EDGE_WEIGHT_TYPE : EUC2D
NODE_COORD_SECTION
1 361.0 115.0
2 522.0 130.0
3 576.0 317.0
4 409.0 457.0
5 202.0 439.0
6 698.0 219.0
7 651.0 419.0
8 104.0 251.0
9 432.0 94.0
10 395.0 254.0
11 211.0 372.0
12 545.0 520.0
13 170.0 510.0
14 51.0  341.0
15 185.0 138.0
16 560.0 100.0
17 641.0 188.0
18 325.0 265.0
19 672.0 345.0
20 676.0 463.0
EOF